1651561200
1651579200
1651647600
1651665600
1651734000
1651752000
1651820400
1651831200
1651834800
1651838400
1651838400
1651838400
1651838400
1651838400
1651838400
1651842000
1652079600
1652094000
1652094000
1652101200
1652166000
1652180400
1652252400
1652270400
1652338800
1652356800
1652425200
1652436000
1652439600
1652446800
1652684400
1652702400
1652770800
1652788800
1652857200
1652875200
1652943600
1652961600
1653030000
1653040800
1653044400
1653051600
1653289200
1653307200
1653375600
1653393600
1653462000
1653480000
1653634800
1653645600
1653649200
1653656400
1653894000
1653912000
1653980400
1653998400
